unsat
(:max-memory         18.52
 :memory             18.32
 :nlsat-arith-var    3
 :nlsat-atoms        17
 :nlsat-bool-var     4
 :nlsat-clauses      7
 :nlsat-conflicts    11
 :nlsat-decisions    2
 :nlsat-propagations 38
 :nlsat-stages       9
 :num-allocs         76442
 :rlimit-count       16468
 :time               0.01
 :total-time         0.03)
